w = 22;
n = 16;
measures = [|4, 19,
|3, 22,
|3, 14,
|3, 13,
|3, 12,
|3, 11,
|3, 10,
|3, 9,
|3, 8,
|6, 4,
|3, 7,
|3, 6,
|3, 5,
|3, 4,
|4, 3,
|3, 3,
|];
initial_x = [0, 4, 7, 10, 13, 16, 19, 0, 3, 6, 12, 15, 18, 0, 3, 7];
initial_y = [0, 0, 0, 0, 0, 0, 0, 22, 22, 22, 22, 22, 22, 31, 31, 31];